(declare-const term_to_project_onto Real)
(assert (exists ((|i'?1| Int) (w?2 Int) (i?3 Int))
         (and (<= (+ (- w?2) 1) 0) (<= (- i?3) 0) (<= (+ i?3 (- w?2) 1) 0)
                (= (+ |i'?1| (- i?3) -2) 0)
                (= term_to_project_onto (+ |i'?1| (- i?3))))))
(check-sat)
